100 10
1
90 24 54 47 77 40 59 95 79 89 31 56 33 38 92 20 14 9 67 81 79 3 47 70 42 5 20 57 59 54 77 24 58 79 36 80 58 51 63 73 83 88 82 55 78 70 27 23 53 69 68 23 46 39 66 77 26 24 17 87 1 45 58 21 17 56 33 43 75 98 2 96 90 83 26 26 52 55 7 62 99 31 79 92 76 46 87 70 69 55 92 98 87 85 74 15 14 56 87 1
464 492 594 481 420 582 744 718 597 562
0 59 15 0 0 0 0 0 0 0 0 0 0 91 49 0 0 40 0 45 0 16 0 0 0 0 0 0 0 0 0 0 0 0 0 0 0 0 0 48 0 0 0 0 0 0 0 94 0 8 0 0 0 0 0 0 0 0 64 0 0 0 0 15 0 0 14 0 0 0 0 0 0 0 0 0 0 0 0 0 0 0 38 0 0 79 0 0 0 0 0 66 0 0 0 0 68 0 0 0
0 0 0 0 0 0 0 41 0 0 0 0 0 0 62 44 0 0 0 0 0 0 0 51 0 0 0 0 63 0 0 0 56 0 0 0 0 0 71 0 77 0 0 53 0 0 85 29 0 0 0 0 0 0 0 0 26 0 0 0 0 0 76 0 0 0 0 0 0 0 0 0 0 0 0 27 0 1 0 0 0 26 0 0 0 0 0 52 0 0 12 0 0 0 0 0 0 0 0 0
0 0 95 0 0 0 0 88 0 0 0 0 0 0 0 84 0 0 0 0 0 85 0 0 0 80 0 0 28 0 99 0 0 36 0 0 0 0 0 0 0 0 0 0 0 0 0 0 0 21 0 0 0 37 11 0 6 96 0 0 0 0 0 0 0 0 0 0 0 0 0 18 0 28 0 94 0 0 0 85 0 0 0 0 0 30 0 0 0 30 0 0 0 0 0 0 0 10 0 0
0 0 0 0 86 0 0 0 0 0 0 0 0 0 0 0 0 0 16 4 0 0 0 0 3 58 12 0 0 0 0 61 0 0 0 0 0 0 0 16 0 0 0 0 0 0 0 0 0 0 21 19 0 0 0 0 0 0 34 0 0 0 0 48 0 5 0 0 0 69 0 0 0 0 0 33 0 0 0 30 0 46 0 0 0 0 0 0 63 0 80 0 0 64 0 0 0 0 70 0
0 0 0 0 0 0 18 0 0 0 0 0 0 0 90 0 0 0 0 0 0 0 0 0 0 32 76 0 0 0 0 0 0 0 0 0 0 0 0 0 0 0 0 0 0 98 0 0 0 0 0 15 0 48 0 0 27 0 0 0 0 0 0 0 0 0 0 0 0 86 0 63 0 0 0 0 0 16 0 0 0 0 0 0 0 0 26 0 0 0 0 22 0 0 21 0 67 0 0 0
0 11 52 0 0 0 0 89 0 0 0 0 0 0 0 4 0 0 0 0 0 96 0 92 0 0 0 0 0 0 0 0 0 0 0 0 0 0 0 0 75 0 0 0 0 0 0 0 32 0 5 0 0 0 0 0 0 0 0 41 0 21 0 0 35 62 68 0 0 45 0 42 0 0 0 0 0 65 0 0 0 0 0 0 15 0 66 0 0 0 58 0 34 0 0 0 0 0 0 0
0 0 50 0 0 0 0 0 74 21 0 0 37 0 0 0 41 71 0 70 0 0 0 0 0 0 56 87 0 0 0 10 0 0 0 30 0 0 0 0 0 49 0 0 0 33 72 68 0 0 0 0 0 0 0 0 43 0 85 0 12 53 26 0 99 0 0 0 0 0 55 0 0 0 0 0 0 0 0 0 0 0 0 0 0 0 80 0 0 89 0 0 0 0 0 0 0 0 0 0
12 0 0 77 0 0 0 39 98 0 0 0 0 0 0 0 0 0 0 0 0 0 0 0 0 0 0 0 0 49 0 82 95 0 0 18 46 0 91 0 0 0 0 0 0 0 0 0 0 1 0 0 0 0 0 0 0 0 0 0 0 0 46 0 0 0 0 0 0 0 89 82 0 0 0 0 21 51 0 0 0 0 0 0 95 0 0 0 0 0 61 40 0 0 0 0 86 0 72 0
0 0 0 0 0 0 0 0 0 0 0 0 0 0 0 0 0 59 0 74 0 0 0 0 0 0 0 54 1 0 0 0 0 8 38 0 0 0 0 5 0 84 0 0 0 0 66 32 0 0 82 0 0 0 47 0 90 0 15 0 0 0 66 0 28 0 17 0 0 0 0 0 81 46 0 0 0 61 0 0 0 0 0 0 0 0 0 0 0 0 63 0 34 0 0 0 0 0 0 0
0 0 0 0 0 0 0 0 0 0 0 0 88 0 28 0 0 0 0 0 22 0 0 0 0 0 67 18 0 0 0 91 0 0 0 0 6 0 0 0 0 0 0 0 0 0 67 0 20 0 0 0 0 0 0 0 77 0 0 0 28 0 0 0 0 0 0 0 0 0 0 0 11 0 52 0 0 0 0 0 0 0 59 0 29 0 0 0 60 0 72 0 0 0 0 0 0 97 0 67
0 14 4 0 0 0 0 0 0 0 0 0 0 35 28 0 0 28 0 4 0 15 0 0 0 0 0 0 0 0 0 0 0 0 0 0 0 0 0 11 0 0 0 0 0 0 0 31 0 4 0 0 0 0 0 0 0 0 12 0 0 0 0 4 0 0 10 0 0 0 0 0 0 0 0 0 0 0 0 0 0 0 19 0 0 74 0 0 0 0 0 26 0 0 0 0 57 0 0 0
0 0 0 0 0 0 0 30 0 0 0 0 0 0 35 0 0 0 0 0 0 0 0 38 0 0 0 0 18 0 0 0 31 0 0 0 0 0 41 0 57 0 0 48 0 0 42 17 0 0 0 0 0 0 0 0 18 0 0 0 0 0 52 0 0 0 0 0 0 0 0 0 0 0 0 22 0 0 0 0 0 0 0 0 0 0 0 6 0 0 0 0 0 0 0 0 0 0 0 0
0 0 27 0 0 0 0 0 0 0 0 0 0 0 0 26 0 0 0 0 0 50 0 0 0 20 0 0 26 0 26 0 0 1 0 0 0 0 0 0 0 0 0 0 0 0 0 0 0 5 0 0 0 13 8 0 2 60 0 0 0 0 0 0 0 0 0 0 0 0 0 6 0 27 0 62 0 0 0 38 0 0 0 0 0 23 0 0 0 4 0 0 0 0 0 0 0 5 0 0
0 0 0 0 61 0 0 0 0 0 0 0 0 0 0 0 0 0 7 2 0 0 0 0 0 17 5 0 0 0 0 13 0 0 0 0 0 0 0 10 0 0 0 0 0 0 0 0 0 0 19 17 0 0 0 0 0 0 32 0 0 0 0 8 0 0 0 0 0 20 0 0 0 0 0 4 0 0 0 18 0 21 0 0 0 0 0 0 39 0 74 0 0 25 0 0 0 0 23 0
0 0 0 0 0 0 13 0 0 0 0 0 0 0 11 0 0 0 0 0 0 0 0 0 0 10 10 0 0 0 0 0 0 0 0 0 0 0 0 0 0 0 0 0 0 88 0 0 0 0 0 8 0 47 0 0 25 0 0 0 0 0 0 0 0 0 0 0 0 68 0 43 0 0 0 0 0 11 0 0 0 0 0 0 0 0 25 0 0 0 0 13 0 0 6 0 2 0 0 0
0 3 29 0 0 0 0 4 0 0 0 0 0 0 0 0 0 0 0 0 0 35 0 82 0 0 0 0 0 0 0 0 0 0 0 0 0 0 0 0 46 0 0 0 0 0 0 0 14 0 1 0 0 0 0 0 0 0 0 6 0 16 0 0 20 23 63 0 0 35 0 7 0 0 0 0 0 6 0 0 0 0 0 0 5 0 64 0 0 0 50 0 26 0 0 0 0 0 0 0
0 0 9 0 0 0 0 0 67 18 0 0 21 0 0 0 33 8 0 51 0 0 0 0 0 0 33 61 0 0 0 7 0 0 0 29 0 0 0 0 0 41 0 0 0 27 51 40 0 0 0 0 0 0 0 0 7 0 45 0 9 47 24 0 46 0 0 0 0 0 21 0 0 0 0 0 0 0 0 0 0 0 0 0 0 0 54 0 0 0 0 0 0 0 0 0 0 0 0 0
3 0 0 19 0 0 0 21 27 0 0 0 0 0 0 0 0 0 0 0 0 0 0 0 0 0 0 0 0 33 0 21 94 0 0 15 18 0 67 0 0 0 0 0 0 0 0 0 0 0 0 0 0 0 0 0 0 0 0 0 0 0 35 0 0 0 0 0 0 0 29 22 0 0 0 0 10 42 0 0 0 0 0 0 72 0 0 0 0 0 31 12 0 0 0 0 82 0 7 0
0 0 0 0 0 0 0 0 0 0 0 0 0 0 0 0 0 23 0 8 0 0 0 0 0 0 0 23 0 0 0 0 0 6 34 0 0 0 0 3 0 3 0 0 0 0 55 16 0 0 68 0 0 0 15 0 24 0 14 0 0 0 62 0 10 0 2 0 0 0 0 0 47 23 0 0 0 40 0 0 0 0 0 0 0 0 0 0 0 0 35 0 16 0 0 0 0 0 0 0
0 0 0 0 0 0 0 0 0 0 0 0 87 0 15 0 0 0 0 0 14 0 0 0 0 0 57 17 0 0 0 52 0 0 0 0 0 0 0 0 0 0 0 0 0 0 15 0 3 0 0 0 0 0 0 0 73 0 0 0 14 0 0 0 0 0 0 0 0 0 0 0 4 0 2 0 0 0 0 0 0 0 30 0 12 0 0 0 25 0 0 0 0 0 0 0 0 77 0 11
